rectOffsets = 
    [|0,0,5,7|0,0,7,5|0,0,5,14|0,0,14,5|0,0,8,14|0,0,14,8|0,0,8,4|0,0,4,8|0,0,13,21|0,0,21,13|0,0,11,7|0,0,7,11|0,0,11,14|0,0,14,11|0,0,5,14|0,0,14,5|0,0,5,4|0,0,4,5|0,0,3,18|0,0,18,3|0,0,3,21|0,0,21,3|0,0,11,17|0,0,17,11|0,0,11,4|0,0,4,11|0,0,4,7|0,0,7,4|0,0,4,5|0,0,5,4|0,0,7,6|0,0,6,7|0,0,5,18|0,0,18,5|0,0,5,3|0,0,3,5|0,0,3,7|0,0,7,3|0,0,3,5|0,0,5,3|0,0,4,18|0,0,18,4|0,0,4,3|0,0,3,4|0,0,2,12|0,0,12,2|0,0,2,6|0,0,6,2|0,0,5,18|0,0,18,5|0,0,5,21|0,0,21,5|0,0,3,17|0,0,17,3|0,0,3,4|0,0,4,3|];

shape = array1d(1..56, [{1}, {2}, {3}, {4}, {5}, {6}, {7}, {8}, {9}, {10},
    {11}, {12}, {13}, {14}, {15}, {16}, {17}, {18}, {19}, {20}, {21},
    {22}, {23}, {24}, {25}, {26}, {27}, {28}, {29}, {30}, {31}, {32},
    {33}, {34}, {35}, {36}, {37}, {38}, {39}, {40}, {41}, {42}, {43},
    {44}, {45}, {46}, {47}, {48}, {49}, {50}, {51}, {52}, {53}, {54},
    {55}, {56}]);

validshapes = array1d(1..28, [{1,2}, {3,4}, {5,6}, {7,8}, {9,10}, {11,12}, {13,14},
    {15,16}, {17,18}, {19,20}, {21,22}, {23,24}, {25,26}, {27,28},
    {29,30}, {31,32}, {33,34}, {35,36}, {37,38}, {39,40}, {41,42},
    {43,44}, {45,46}, {47,48}, {49,50}, {51,52}, {53,54}, {55,56}]);

dx = array1d(1..28, [5, 5, 8, 8, 13, 11, 11, 5, 5, 3, 3, 11, 11, 4, 4, 7,
    5, 5, 3, 3, 4, 4, 2, 2, 5, 5, 3, 3]);

dy = array1d(1..28, [7, 14, 14, 4, 21, 7, 14, 14, 4, 18, 21, 17, 4, 7, 5,
    6, 18, 3, 7, 5, 18, 3, 12, 6, 18, 21, 17, 4]);

w = 30;

n = 28;

o = 56;

